NAME : MM28_depots
COMMENT : Instance 28 in MD algorithm. Coordinates of depots and vhcl speeds given.
TYPE : TSP
DIMENSION : 5
EDGE_WEIGHT_TYPE : ATT
NODE_COORD_SECTION
501 0.1314 34.6471 1
502 98.1268 55.7503 1
503 98.1268 55.7503 1
504 57.0194 29.9785 1
505 57.0194 29.9785 1
EOF
